data/solutions/recovery/degenerate/moderate/binding/degenerate_moderate_instance36/12.sol
Elapsed time: 0.04
Upper bound: 1415146285.0
Planning weighted value: 37019289009.0
C[0]=1415146285.0
C[1]=1412732453.0
C[2]=1407699702.0
C[3]=1404424574.0
C[4]=0.0
y[0]=0
y[1]=2
y[2]=0
y[3]=2
y[4]=3
y[5]=3
y[6]=3
y[7]=1
y[8]=2
y[9]=0
y[10]=1
y[11]=2
y[12]=2
y[13]=1
y[14]=2
y[15]=2
y[16]=2
y[17]=0
y[18]=3
y[19]=0
y[20]=0
y[21]=0
y[22]=2
y[23]=3
y[24]=0
y[25]=0
y[26]=0
y[27]=0
y[28]=1
y[29]=0
y[30]=3
y[31]=2
y[32]=1
y[33]=3
y[34]=3
y[35]=3
y[36]=2
y[37]=0
y[38]=0
y[39]=1
y[40]=1
y[41]=2
y[42]=3
y[43]=0
y[44]=1
y[45]=0
