data/solutions/recovery/degenerate/moderate/binding/degenerate_moderate_instance36/12.log

Log started (V12.6.3.0) Fri Apr 20 23:04:36 2018

New value for default parallel thread count: 1

Problem '/tmp/tmp63TG_F.pyomo.lp' read.
Read time = 0.00 sec. (0.11 ticks)

Problem name         : /tmp/tmp63TG_F.pyomo.lp
Objective sense      : Minimize
Variables            :     237  [Nneg: 1,  Binary: 230,  General Integer: 6]
Objective nonzeros   :       1
Linear constraints   :     104  [Less: 51,  Equal: 53]
  Nonzeros           :    7330
  RHS nonzeros       :      47

Variables            : Min LB: 0.000000         Max UB: 1.000000       
Objective nonzeros   : Min   : 1.000000         Max   : 1.000000       
Linear constraints   :
  Nonzeros           : Min   : 1.000000         Max   : 2.657465e+08   
  RHS nonzeros       : Min   : 1.000000         Max   : 1.000000       
Tried aggregator 1 time.
MIP Presolve eliminated 87 rows and 196 columns.
Reduced MIP has 17 rows, 41 columns, and 84 nonzeros.
Reduced MIP has 36 binaries, 5 generals, 0 SOSs, and 0 indicators.
Presolve time = 0.00 sec. (0.48 ticks)
Found incumbent of value 2.0064813e+09 after 0.00 sec. (0.69 ticks)
Probing time = 0.00 sec. (0.05 ticks)
Tried aggregator 1 time.
Reduced MIP has 17 rows, 41 columns, and 84 nonzeros.
Reduced MIP has 36 binaries, 5 generals, 0 SOSs, and 0 indicators.
Presolve time = 0.00 sec. (0.06 ticks)
Probing time = 0.00 sec. (0.05 ticks)
Clique table members: 9.
MIP emphasis: balance optimality and feasibility.
MIP search method: dynamic search.
Parallel mode: none, using 1 thread.
Root relaxation solution time = 0.00 sec. (0.10 ticks)

        Nodes                                         Cuts/
   Node  Left     Objective  IInf  Best Integer    Best Bound    ItCnt     Gap

*     0+    0                       2.00648e+09   1.37796e+09            31.32%
      0     0   1.41000e+09    10   2.00648e+09   1.41000e+09       50   29.73%
      0     0   1.41000e+09     6   2.00648e+09      Fract: 4       66   29.73%
*     0+    0                       1.45029e+09   1.41000e+09             2.78%
      0     2   1.41000e+09     6   1.45029e+09   1.41000e+09       66    2.78%
Elapsed time = 0.00 sec. (1.78 ticks, tree = 0.01 MB, solutions = 2)
*    10     6      integral     0   1.41629e+09   1.41000e+09      101    0.44%
*    12     2      integral     0   1.41515e+09   1.41000e+09      110    0.36%

Gomory fractional cuts applied:  3

Root node processing (before b&c):
  Real time             =    0.00 sec. (1.79 ticks)
Sequential b&c:
  Real time             =    0.00 sec. (0.63 ticks)
                          ------------
Total (root+branch&cut) =    0.01 sec. (2.42 ticks)

Solution pool: 4 solutions saved.

MIP - Integer optimal solution:  Objective =  1.4151462850e+09
Solution time =    0.01 sec.  Iterations = 169  Nodes = 35
Deterministic time = 2.42 ticks  (453.30 ticks/sec)


Incumbent solution written to file '/tmp/tmpThkH0Z.cplex.sol'.
